p cnf 12 50 
7 -12 3 0
-8 -1 9 0
-6 10 1 0
-12 5 10 0
5 -12 -1 0
-8 -7 9 0
-11 6 -2 0
-11 -1 9 0
-5 -7 6 0
8 10 6 0
11 12 8 0
-1 12 11 0
2 -10 -4 0
10 -5 -2 0
11 -8 -3 0
5 4 -7 0
6 7 8 0
11 -3 -12 0
-6 -10 -11 0
-2 11 6 0
2 -8 -1 0
-1 7 4 0
1 -9 5 0
-4 -12 -6 0
-7 -9 -8 0
-11 9 12 0
-11 -8 12 0
3 -4 2 0
-3 -7 -5 0
-1 12 -9 0
-4 -1 -7 0
3 8 12 0
6 -2 10 0
7 -12 6 0
-7 -5 -3 0
-9 -6 -10 0
11 -5 -8 0
-10 -4 -8 0
-11 -12 5 0
12 6 3 0
-9 11 -2 0
-1 -5 9 0
6 10 -8 0
-12 5 -6 0
10 4 7 0
11 -4 2 0
7 -5 -4 0
-2 4 7 0
3 -7 -5 0
-4 -8 -11 0
